
Gurobi 10.0.3 (linux64, gurobi_cl) logging started Thu Nov  2 11:33:57 2023

Set parameter Username
Set parameter TimeLimit to value 3600
Set parameter LogFile to value "RCPSP_241.log"
Set parameter Threads to value 32
Academic license - for non-commercial use only - expires 2024-10-30
Using license file /home/jrivera6/gurobi-licenses/v1003/compute-0-39/gurobi.lic

Gurobi Optimizer version 10.0.3 build v10.0.3rc0 (linux64)
Copyright (c) 2023, Gurobi Optimization, LLC

Read MPS format model from file RCPSP_241.mps
Reading time = 0.01 seconds
RCPSP_241: 5339 rows, 2080 columns, 17984 nonzeros

CPU model: Intel(R) Xeon(R) Gold 6242 CPU @ 2.80GHz, instruction set [SSE2|AVX|AVX2|AVX512]
Thread count: 32 physical cores, 32 logical processors, using up to 32 threads

Optimize a model with 5339 rows, 2080 columns and 17984 nonzeros
Model fingerprint: 0x9c4dd396
Variable types: 32 continuous, 2048 integer (2048 binary)
Coefficient statistics:
  Matrix range     [1e+00, 2e+02]
  Objective range  [1e+00, 1e+00]
  Bounds range     [1e+00, 1e+00]
  RHS range        [1e+00, 2e+02]
Presolve removed 3632 rows and 1414 columns
Presolve time: 0.10s
Presolved: 1707 rows, 666 columns, 5444 nonzeros
Variable types: 31 continuous, 635 integer (635 binary)

Root relaxation: objective 6.600000e+01, 244 iterations, 0.00 seconds (0.00 work units)

    Nodes    |    Current Node    |     Objective Bounds      |     Work
 Expl Unexpl |  Obj  Depth IntInf | Incumbent    BestBd   Gap | It/Node Time

     0     0   66.00000    0   31          -   66.00000      -     -    0s
     0     0   67.00000    0   24          -   67.00000      -     -    0s
     0     0   67.00000    0  125          -   67.00000      -     -    0s
     0     0   70.55768    0   27          -   70.55768      -     -    0s
     0     0   73.22594    0   49          -   73.22594      -     -    0s
     0     0   73.22594    0   49          -   73.22594      -     -    0s
     0     0   73.59137    0   71          -   73.59137      -     -    0s
     0     0   74.02413    0   52          -   74.02413      -     -    0s
     0     0   74.21055    0   54          -   74.21055      -     -    0s
     0     0   74.21055    0   49          -   74.21055      -     -    0s
     0     0   75.83890    0   38          -   75.83890      -     -    0s
H    0     0                     126.0000000   75.83890  39.8%     -    1s
     0     0   75.83890    0   59  126.00000   75.83890  39.8%     -    1s
     0     0   76.31439    0   72  126.00000   76.31439  39.4%     -    1s
     0     0   77.22594    0   52  126.00000   77.22594  38.7%     -    1s
     0     0   77.22594    0   61  126.00000   77.22594  38.7%     -    1s
     0     0   77.22594    0   94  126.00000   77.22594  38.7%     -    1s
     0     0   77.22594    0   79  126.00000   77.22594  38.7%     -    1s
H    0     0                     113.0000000   78.11297  30.9%     -    1s
     0     0   78.11297    0   94  113.00000   78.11297  30.9%     -    1s
     0     0   78.11297    0   74  113.00000   78.11297  30.9%     -    1s
     0     0   79.00000    0   70  113.00000   79.00000  30.1%     -    1s
     0     0   79.00000    0   81  113.00000   79.00000  30.1%     -    1s
     0     0   79.00000    0   77  113.00000   79.00000  30.1%     -    1s
     0     0   79.00000    0   67  113.00000   79.00000  30.1%     -    1s
H    0     0                     110.0000000   79.00000  28.2%     -    1s
     0     0   79.00000    0   21  110.00000   79.00000  28.2%     -    2s
     0     0   79.00000    0   52  110.00000   79.00000  28.2%     -    2s
     0     0   79.00000    0   28  110.00000   79.00000  28.2%     -    2s
     0     0   79.00000    0  115  110.00000   79.00000  28.2%     -    2s
     0     0   79.00000    0   48  110.00000   79.00000  28.2%     -    2s
     0     0   79.00000    0   20  110.00000   79.00000  28.2%     -    2s
H    0     0                     107.0000000   79.00000  26.2%     -    2s
H    0     0                     101.0000000   79.00000  21.8%     -    2s
     0     2   79.00000    0   19  101.00000   79.00000  21.8%     -    3s
H   29    53                     101.0000000   79.00000  21.8%   100    6s
H   30    53                      97.0000000   79.00000  18.6%  96.4    6s
    92    96   79.00000    7   87   97.00000   79.00000  18.6%  60.5   10s
H   96    96                      96.0000000   79.00000  17.7%  59.4   10s
H  111    96                      96.0000000   79.00000  17.7%  54.0   10s
H  114    96                      95.0000000   79.00000  16.8%  52.7   10s
   248   205   79.00000   11   29   95.00000   79.00000  16.8%  45.2   16s
H  260   205                      93.0000000   79.00000  15.1%  44.1   16s
H  287   205                      92.0000000   79.00000  14.1%  41.1   16s
  1585   986   88.00000   40   44   92.00000   79.00000  14.1%  18.8   20s
  6421  2871   79.39887   12   78   92.00000   79.00000  14.1%  13.8   25s
H 8098  3228                      92.0000000   79.00000  14.1%  13.8   27s
  8099  3229   91.00000   70   20   92.00000   79.00000  14.1%  13.8   31s
  8102  3231   87.00622   21   26   92.00000   79.00000  14.1%  13.8   36s
  8108  3235   91.00000   34   47   92.00000   79.00000  14.1%  13.8   40s
  8127  3248   86.25000   23   86   92.00000   80.80923  12.2%  13.8   45s
  8143  3258   91.00000   67   92   92.00000   81.07663  11.9%  13.7   50s
  8160  3270   88.00000   24   95   92.00000   81.37614  11.5%  13.7   55s
  8165  3274   84.00000   19   14   92.00000   81.37614  11.5%  18.1   60s
  8167  3276   84.00000   22  111   92.00000   81.37614  11.5%  18.0   66s
  8177  3282   87.00000    9  107   92.00000   82.00000  10.9%  18.0   70s
  8191  3293   84.00000   15   12   92.00000   82.00000  10.9%  19.8   77s
  8192  3294   91.00000   32   45   92.00000   82.00000  10.9%  19.8   80s
  8194  3295   89.00000   22   13   92.00000   82.00000  10.9%  19.8   85s
  8212  3307   83.11297   13   35   92.00000   82.00000  10.9%  19.8   90s
  8243  3353   82.04631   43  113   92.00000   82.00000  10.9%  21.3   95s
  8307  3364     cutoff   45        92.00000   82.00000  10.9%  22.8  105s
  8515  3374 infeasible   48        92.00000   82.00000  10.9%  24.6  110s
  8660  3337   87.00000   56   58   92.00000   82.00000  10.9%  25.2  116s
  8708  3323   87.00000   57   52   92.00000   82.00000  10.9%  25.4  123s
H 8757  3141                      91.0000000   82.00000  9.89%  25.6  123s
  8858  3065   87.00000   58   48   91.00000   82.03710  9.85%  26.0  126s
* 9232  2794              61      91.0000000   82.03710  9.85%  27.7  129s
  9276  2767 infeasible   48        91.00000   82.03710  9.85%  27.8  131s
* 9647  2518              59      90.0000000   82.11990  8.76%  28.2  133s
  9833  2323 infeasible   46        90.00000   82.13876  8.73%  28.3  136s

Cutting planes:
  Gomory: 28
  Cover: 22
  Implied bound: 1
  Projected implied bound: 8
  Clique: 4
  MIR: 98
  StrongCG: 10
  Flow cover: 333
  Inf proof: 2
  RLT: 18
  Relax-and-lift: 9

Explored 9963 nodes (293237 simplex iterations) in 139.00 seconds (9.52 work units)
Thread count was 32 (of 32 available processors)

Solution count 10: 90 91 91 ... 97

Optimal solution found (tolerance 1.00e-04)
Best objective 9.000000000000e+01, best bound 9.000000000000e+01, gap 0.0000%

Wrote result file 'RCPSP_241.sol'

